45
0 1 2 1 3 4 5 3 6 7 7 5 8 9 6 10 11 12 13 10 14 2 15 16 6 17 16 8 13 18 19 9 12 0 15 7 14 20 3 17 21 22 16 20 19 23 24 21 25 0 22 24 1 26 27 28 29 25 30 26 31 32 29 33 32 31 17 15 11 34 35 36 18 37 38 33 39 37 36 40 29 40 41 27 42 42 41 43 4 23 38 39 21 30 28 34 37 44 39 43 
